p cnf 1063 2822
1 0
2 0
3 0
4 0
5 0
6 0
7 0
-8 0
-9 0
-10 0
-11 0
-12 0
-13 0
-14 0
-15 0
-16 0
-17 0
-18 19 0
20 19 0
18 -20 -19 0
1 -19 0
-1 19 0
-21 22 0
23 22 0
21 -23 -22 0
24 -22 0
-24 22 0
-25 26 0
27 26 0
25 -27 -26 0
28 -26 0
-28 26 0
-29 30 0
31 30 0
29 -31 -30 0
32 -30 0
-32 30 0
-33 34 0
35 34 0
33 -35 -34 0
36 -34 0
-36 34 0
-37 38 0
39 38 0
37 -39 -38 0
2 -38 0
-2 38 0
-40 41 0
42 41 0
40 -42 -41 0
43 -41 0
-43 41 0
-44 45 0
46 45 0
44 -46 -45 0
47 -45 0
-47 45 0
-48 49 0
50 49 0
48 -50 -49 0
51 -49 0
-51 49 0
-52 53 0
54 53 0
52 -54 -53 0
3 -53 0
-3 53 0
-55 56 0
57 56 0
55 -57 -56 0
58 -56 0
-58 56 0
-59 60 0
61 60 0
59 -61 -60 0
4 -60 0
-4 60 0
-62 63 0
64 63 0
62 -64 -63 0
65 -63 0
-65 63 0
-66 67 0
68 67 0
66 -68 -67 0
69 -67 0
-69 67 0
-70 71 0
72 71 0
70 -72 -71 0
73 -71 0
-73 71 0
-74 75 0
76 75 0
74 -76 -75 0
5 -75 0
-5 75 0
-77 78 0
79 78 0
77 -79 -78 0
80 -78 0
-80 78 0
-81 82 0
83 82 0
81 -83 -82 0
84 -82 0
-84 82 0
-85 86 0
87 86 0
85 -87 -86 0
6 -86 0
-6 86 0
-88 89 0
90 89 0
88 -90 -89 0
91 -89 0
-91 89 0
-92 93 0
94 93 0
92 -94 -93 0
7 -93 0
-7 93 0
-95 96 0
97 96 0
95 -97 -96 0
8 -96 0
-8 96 0
-98 99 0
100 99 0
98 -100 -99 0
101 -99 0
-101 99 0
-102 103 0
104 103 0
102 -104 -103 0
105 -103 0
-105 103 0
-106 107 0
108 107 0
106 -108 -107 0
109 -107 0
-109 107 0
-110 111 0
112 111 0
110 -112 -111 0
113 -111 0
-113 111 0
-114 115 0
116 115 0
114 -116 -115 0
117 -115 0
-117 115 0
-118 119 0
120 119 0
118 -120 -119 0
9 -119 0
-9 119 0
-121 122 0
123 122 0
121 -123 -122 0
124 -122 0
-124 122 0
-125 126 0
127 126 0
125 -127 -126 0
10 -126 0
-10 126 0
-128 129 0
130 129 0
128 -130 -129 0
131 -129 0
-131 129 0
-132 133 0
134 133 0
132 -134 -133 0
135 -133 0
-135 133 0
-136 137 0
138 137 0
136 -138 -137 0
139 -137 0
-139 137 0
-140 141 0
142 141 0
140 -142 -141 0
143 -141 0
-143 141 0
-144 145 0
146 145 0
144 -146 -145 0
147 -145 0
-147 145 0
-148 149 0
150 149 0
148 -150 -149 0
11 -149 0
-11 149 0
-151 152 0
153 152 0
151 -153 -152 0
154 -152 0
-154 152 0
-155 156 0
157 156 0
155 -157 -156 0
158 -156 0
-158 156 0
-159 160 0
161 160 0
159 -161 -160 0
162 -160 0
-162 160 0
-163 164 0
165 164 0
163 -165 -164 0
166 -164 0
-166 164 0
-167 168 0
169 168 0
167 -169 -168 0
12 -168 0
-12 168 0
-170 171 0
172 171 0
170 -172 -171 0
173 -171 0
-173 171 0
-174 175 0
176 175 0
174 -176 -175 0
177 -175 0
-177 175 0
-178 179 0
180 179 0
178 -180 -179 0
181 -179 0
-181 179 0
-182 183 0
184 183 0
182 -184 -183 0
185 -183 0
-185 183 0
-186 187 0
188 187 0
186 -188 -187 0
189 -187 0
-189 187 0
-190 191 0
192 191 0
190 -192 -191 0
193 -191 0
-193 191 0
-194 195 0
196 195 0
194 -196 -195 0
13 -195 0
-13 195 0
-197 198 0
199 198 0
197 -199 -198 0
200 -198 0
-200 198 0
-201 202 0
203 202 0
201 -203 -202 0
204 -202 0
-204 202 0
-205 206 0
207 206 0
205 -207 -206 0
208 -206 0
-208 206 0
-209 210 0
211 210 0
209 -211 -210 0
212 -210 0
-212 210 0
-213 214 0
215 214 0
213 -215 -214 0
216 -214 0
-216 214 0
-217 218 0
219 218 0
217 -219 -218 0
220 -218 0
-220 218 0
-221 222 0
223 222 0
221 -223 -222 0
14 -222 0
-14 222 0
-224 225 0
226 225 0
224 -226 -225 0
227 -225 0
-227 225 0
-228 229 0
230 229 0
228 -230 -229 0
231 -229 0
-231 229 0
-232 233 0
234 233 0
232 -234 -233 0
235 -233 0
-235 233 0
-236 237 0
238 237 0
236 -238 -237 0
239 -237 0
-239 237 0
-240 241 0
242 241 0
240 -242 -241 0
15 -241 0
-15 241 0
-243 244 0
245 244 0
243 -245 -244 0
246 -244 0
-246 244 0
-247 248 0
249 248 0
247 -249 -248 0
16 -248 0
-16 248 0
-250 251 0
252 251 0
250 -252 -251 0
253 -251 0
-253 251 0
-254 255 0
256 255 0
254 -256 -255 0
257 -255 0
-257 255 0
-258 259 0
260 259 0
258 -260 -259 0
17 -259 0
-17 259 0
-261 262 0
263 262 0
261 -263 -262 0
264 -262 0
-264 262 0
-265 266 0
267 266 0
265 -267 -266 0
268 -266 0
-268 266 0
-269 270 0
271 270 0
269 -271 -270 0
272 -270 0
-272 270 0
-273 274 0
275 274 0
273 -275 -274 0
276 -274 0
-276 274 0
277 278 0
279 278 0
280 278 0
281 278 0
282 278 0
-283 0
-284 285 0
-286 -279 285 0
-287 -279 -280 285 0
-288 -279 -280 -281 285 0
278 285 0
284 286 287 288 -278 -285 0
284 279 287 288 -278 -285 0
284 286 279 288 -278 -285 0
284 279 288 -278 -285 0
284 286 280 288 -278 -285 0
284 279 280 288 -278 -285 0
284 286 279 287 -278 -285 0
284 279 287 -278 -285 0
284 286 279 -278 -285 0
284 279 -278 -285 0
284 286 279 280 -278 -285 0
284 279 280 -278 -285 0
284 286 287 280 -278 -285 0
284 279 287 280 -278 -285 0
284 286 280 -278 -285 0
284 286 287 281 -278 -285 0
284 279 287 281 -278 -285 0
284 286 279 281 -278 -285 0
284 279 281 -278 -285 0
284 286 280 281 -278 -285 0
284 279 280 281 -278 -285 0
18 -285 0
-18 285 0
-286 289 0
-287 -280 289 0
-288 -280 -281 289 0
-277 -280 -281 -282 289 0
286 287 288 277 -289 0
286 280 288 277 -289 0
286 287 280 277 -289 0
286 280 277 -289 0
286 287 281 277 -289 0
286 280 281 277 -289 0
286 287 280 288 -289 0
286 280 288 -289 0
286 287 280 -289 0
286 280 -289 0
286 287 280 281 -289 0
286 280 281 -289 0
286 287 288 281 -289 0
286 280 288 281 -289 0
286 287 281 -289 0
286 287 288 282 -289 0
286 280 288 282 -289 0
286 287 280 282 -289 0
286 280 282 -289 0
286 287 281 282 -289 0
286 280 281 282 -289 0
21 -289 0
-21 289 0
-287 290 0
-288 -281 290 0
-277 -281 -282 290 0
-286 -281 -282 -291 290 0
286 287 288 277 -290 0
286 287 281 277 -290 0
286 287 288 281 -290 0
286 287 281 -290 0
286 287 288 282 -290 0
286 287 281 282 -290 0
287 288 281 277 -290 0
287 281 277 -290 0
287 288 281 -290 0
287 281 -290 0
287 288 281 282 -290 0
287 281 282 -290 0
287 288 277 282 -290 0
287 281 277 282 -290 0
287 288 282 -290 0
287 288 277 291 -290 0
287 281 277 291 -290 0
287 288 281 291 -290 0
287 281 291 -290 0
287 288 282 291 -290 0
287 281 282 291 -290 0
25 -290 0
-25 290 0
-288 292 0
-277 -282 292 0
-286 -282 -291 292 0
-287 -280 -282 -291 292 0
286 287 288 277 -292 0
286 287 288 282 -292 0
287 288 277 282 -292 0
287 288 282 -292 0
287 288 277 291 -292 0
287 288 282 291 -292 0
286 280 288 277 -292 0
286 280 288 282 -292 0
280 288 277 282 -292 0
280 288 282 -292 0
280 288 277 291 -292 0
280 288 282 291 -292 0
286 288 277 282 -292 0
286 288 282 -292 0
288 277 282 -292 0
288 282 -292 0
288 277 282 291 -292 0
288 282 291 -292 0
286 288 277 291 -292 0
286 288 282 291 -292 0
288 277 291 -292 0
29 -292 0
-29 292 0
-277 293 0
-286 -291 293 0
-287 -280 -291 293 0
-288 -280 -281 -291 293 0
286 287 288 277 -293 0
287 288 277 291 -293 0
286 280 288 277 -293 0
280 288 277 291 -293 0
286 288 277 291 -293 0
288 277 291 -293 0
286 287 280 277 -293 0
287 280 277 291 -293 0
286 280 277 -293 0
280 277 291 -293 0
286 280 277 291 -293 0
286 287 281 277 -293 0
287 281 277 291 -293 0
286 280 281 277 -293 0
280 281 277 291 -293 0
286 281 277 291 -293 0
281 277 291 -293 0
286 287 277 291 -293 0
287 277 291 -293 0
286 277 291 -293 0
277 291 -293 0
33 -293 0
-33 293 0
-294 295 0
-296 -297 295 0
-298 -297 -299 295 0
-300 -297 -299 -301 295 0
294 296 298 300 -295 0
294 297 298 300 -295 0
294 296 297 300 -295 0
294 297 300 -295 0
294 296 299 300 -295 0
294 297 299 300 -295 0
294 296 297 298 -295 0
294 297 298 -295 0
294 296 297 -295 0
294 297 -295 0
294 296 297 299 -295 0
294 297 299 -295 0
294 296 298 299 -295 0
294 297 298 299 -295 0
294 296 299 -295 0
294 296 298 301 -295 0
294 297 298 301 -295 0
294 296 297 301 -295 0
294 297 301 -295 0
294 296 299 301 -295 0
294 297 299 301 -295 0
37 -295 0
-37 295 0
-296 302 0
-298 -299 302 0
-300 -299 -301 302 0
296 298 300 -302 0
296 299 300 -302 0
296 298 299 -302 0
296 299 -302 0
296 298 301 -302 0
296 299 301 -302 0
40 -302 0
-40 302 0
-298 303 0
-300 -301 303 0
298 300 -303 0
298 301 -303 0
44 -303 0
-44 303 0
48 -300 0
300 -48 0
-304 305 0
-306 -307 305 0
304 306 -305 0
304 307 -305 0
52 -305 0
-52 305 0
55 -306 0
306 -55 0
300 308 0
297 308 0
299 308 0
301 308 0
309 308 0
310 308 0
311 308 0
312 308 0
313 308 0
314 308 0
315 308 0
-316 0
298 317 0
297 317 0
299 317 0
309 317 0
310 317 0
311 317 0
312 317 0
313 317 0
314 317 0
315 317 0
-318 0
296 319 0
297 319 0
309 319 0
310 319 0
311 319 0
312 319 0
313 319 0
314 319 0
315 319 0
-320 0
294 321 0
309 321 0
310 321 0
311 321 0
312 321 0
313 321 0
314 321 0
315 321 0
-322 0
323 324 0
309 324 0
310 324 0
311 324 0
312 324 0
313 324 0
314 324 0
-325 0
326 327 0
309 327 0
310 327 0
311 327 0
312 327 0
313 327 0
-328 0
329 330 0
309 330 0
310 330 0
311 330 0
312 330 0
-331 0
-332 333 0
-334 -309 333 0
-335 -309 -310 333 0
-336 0
330 333 0
327 333 0
324 333 0
321 333 0
319 333 0
317 333 0
308 333 0
337 0
338 0
339 0
340 0
341 0
342 0
343 0
344 0
345 0
346 0
347 0
348 0
349 0
350 0
351 0
352 0
353 0
354 0
355 0
356 0
357 0
59 -333 0
-59 333 0
300 358 0
297 358 0
299 358 0
301 358 0
310 358 0
311 358 0
312 358 0
313 358 0
314 358 0
315 358 0
-359 0
298 360 0
297 360 0
299 360 0
310 360 0
311 360 0
312 360 0
313 360 0
314 360 0
315 360 0
-361 0
296 362 0
297 362 0
310 362 0
311 362 0
312 362 0
313 362 0
314 362 0
315 362 0
-363 0
294 364 0
310 364 0
311 364 0
312 364 0
313 364 0
314 364 0
315 364 0
-365 0
323 366 0
310 366 0
311 366 0
312 366 0
313 366 0
314 366 0
-367 0
326 368 0
310 368 0
311 368 0
312 368 0
313 368 0
-369 0
-334 370 0
-335 -310 370 0
-371 -310 -311 370 0
-372 0
368 370 0
366 370 0
364 370 0
362 370 0
360 370 0
358 370 0
373 0
374 0
375 0
376 0
377 0
378 0
379 0
380 0
381 0
382 0
383 0
384 0
385 0
386 0
387 0
388 0
389 0
390 0
391 0
392 0
393 0
62 -370 0
-62 370 0
300 394 0
297 394 0
299 394 0
301 394 0
311 394 0
312 394 0
313 394 0
314 394 0
315 394 0
-395 0
298 396 0
297 396 0
299 396 0
311 396 0
312 396 0
313 396 0
314 396 0
315 396 0
-397 0
296 398 0
297 398 0
311 398 0
312 398 0
313 398 0
314 398 0
315 398 0
-399 0
294 400 0
311 400 0
312 400 0
313 400 0
314 400 0
315 400 0
-401 0
323 402 0
311 402 0
312 402 0
313 402 0
314 402 0
-403 0
-335 404 0
-371 -311 404 0
-329 -311 -312 404 0
-405 0
402 404 0
400 404 0
398 404 0
396 404 0
394 404 0
406 0
407 0
408 0
409 0
410 0
411 0
412 0
413 0
414 0
415 0
416 0
417 0
418 0
419 0
420 0
421 0
422 0
423 0
424 0
425 0
426 0
66 -404 0
-66 404 0
300 427 0
297 427 0
299 427 0
301 427 0
312 427 0
313 427 0
314 427 0
315 427 0
-428 0
298 429 0
297 429 0
299 429 0
312 429 0
313 429 0
314 429 0
315 429 0
-430 0
296 431 0
297 431 0
312 431 0
313 431 0
314 431 0
315 431 0
-432 0
294 433 0
312 433 0
313 433 0
314 433 0
315 433 0
-434 0
-371 435 0
-329 -312 435 0
-326 -312 -313 435 0
-436 0
433 435 0
431 435 0
429 435 0
427 435 0
437 0
438 0
439 0
440 0
441 0
442 0
443 0
444 0
445 0
446 0
447 0
448 0
449 0
450 0
451 0
452 0
453 0
454 0
455 0
456 0
457 0
70 -435 0
-70 435 0
300 458 0
297 458 0
299 458 0
301 458 0
313 458 0
314 458 0
315 458 0
-459 0
298 460 0
297 460 0
299 460 0
313 460 0
314 460 0
315 460 0
-461 0
296 462 0
297 462 0
313 462 0
314 462 0
315 462 0
-463 0
-329 464 0
-326 -313 464 0
-323 -313 -314 464 0
-294 -313 -314 -315 464 0
462 464 0
460 464 0
458 464 0
465 0
466 0
467 0
468 0
469 0
470 0
471 0
472 0
473 0
474 0
475 0
476 0
477 0
478 0
479 0
480 0
481 0
482 0
483 0
484 0
485 0
74 -464 0
-74 464 0
300 486 0
297 486 0
299 486 0
301 486 0
314 486 0
315 486 0
-487 0
298 488 0
297 488 0
299 488 0
314 488 0
315 488 0
-489 0
-326 490 0
-323 -314 490 0
-294 -314 -315 490 0
-296 -297 -314 -315 490 0
488 490 0
486 490 0
491 0
492 0
493 0
494 0
495 0
496 0
497 0
498 0
499 0
500 0
501 0
502 0
503 0
504 0
505 0
326 314 -486 -488 -490 0
506 0
507 0
508 0
509 0
510 0
77 -490 0
-77 490 0
300 511 0
297 511 0
299 511 0
301 511 0
315 511 0
-512 0
-323 513 0
-294 -315 513 0
-296 -297 -315 513 0
-298 -297 -299 -315 513 0
511 513 0
323 294 296 298 -511 -513 0
296 298 323 315 -511 -513 0
294 297 298 323 -511 -513 0
297 298 323 315 -511 -513 0
294 298 323 315 -511 -513 0
298 323 315 -511 -513 0
294 296 297 323 -511 -513 0
296 297 323 315 -511 -513 0
294 297 323 -511 -513 0
297 323 315 -511 -513 0
294 297 323 315 -511 -513 0
294 296 299 323 -511 -513 0
296 299 323 315 -511 -513 0
294 297 299 323 -511 -513 0
297 299 323 315 -511 -513 0
294 299 323 315 -511 -513 0
299 323 315 -511 -513 0
294 296 323 315 -511 -513 0
296 323 315 -511 -513 0
294 323 315 -511 -513 0
323 315 -511 -513 0
81 -513 0
-81 513 0
300 514 0
297 514 0
299 514 0
301 514 0
314 514 0
315 514 0
515 514 0
516 514 0
-517 0
298 518 0
297 518 0
299 518 0
314 518 0
315 518 0
515 518 0
516 518 0
-519 0
296 520 0
297 520 0
314 520 0
315 520 0
515 520 0
516 520 0
-521 0
294 522 0
314 522 0
315 522 0
515 522 0
516 522 0
-523 0
-524 525 0
-526 -515 525 0
-326 -515 -516 525 0
-527 0
522 525 0
520 525 0
518 525 0
514 525 0
528 0
529 0
530 0
531 0
532 0
533 0
534 0
535 0
536 0
537 0
538 0
539 0
540 0
541 0
542 0
543 0
544 0
545 0
546 0
547 0
548 0
85 -525 0
-85 525 0
300 549 0
297 549 0
299 549 0
301 549 0
314 549 0
315 549 0
516 549 0
-550 0
298 551 0
297 551 0
299 551 0
314 551 0
315 551 0
516 551 0
-552 0
296 553 0
297 553 0
314 553 0
315 553 0
516 553 0
-554 0
-526 555 0
-326 -516 555 0
-323 -314 -516 555 0
-294 -314 -315 -516 555 0
553 555 0
551 555 0
549 555 0
556 0
557 0
558 0
559 0
560 0
561 0
562 0
563 0
564 0
565 0
566 0
567 0
568 0
569 0
570 0
571 0
572 0
573 0
574 0
575 0
576 0
88 -555 0
-88 555 0
-577 578 0
-296 -579 578 0
-298 -299 -579 578 0
-300 -299 -301 -579 578 0
577 296 298 300 -578 0
298 300 577 579 -578 0
296 299 300 577 -578 0
299 300 577 579 -578 0
296 300 577 579 -578 0
300 577 579 -578 0
296 298 299 577 -578 0
298 299 577 579 -578 0
296 299 577 -578 0
299 577 579 -578 0
296 299 577 579 -578 0
296 298 301 577 -578 0
298 301 577 579 -578 0
296 299 301 577 -578 0
299 301 577 579 -578 0
296 301 577 579 -578 0
301 577 579 -578 0
296 298 577 579 -578 0
298 577 579 -578 0
296 577 579 -578 0
577 579 -578 0
92 -578 0
-92 578 0
580 581 0
582 581 0
583 581 0
584 581 0
585 581 0
586 581 0
-587 0
588 589 0
580 589 0
582 589 0
583 589 0
584 589 0
-590 0
-591 592 0
-593 -580 592 0
-594 -580 -582 592 0
-595 0
589 592 0
581 592 0
596 0
597 0
598 0
599 0
600 0
601 0
602 0
603 0
604 0
591 580 -581 -589 -592 0
605 0
606 0
607 0
608 0
609 0
610 0
611 0
612 0
613 0
614 0
615 0
95 -592 0
-95 592 0
582 616 0
583 616 0
584 616 0
585 616 0
586 616 0
-617 0
-593 618 0
-594 -582 618 0
-619 -582 -583 618 0
-620 0
616 618 0
593 594 619 588 -616 -618 0
593 582 619 588 -616 -618 0
593 594 582 588 -616 -618 0
593 582 588 -616 -618 0
593 594 583 588 -616 -618 0
593 582 583 588 -616 -618 0
593 594 582 619 -616 -618 0
593 582 619 -616 -618 0
593 594 582 -616 -618 0
593 582 -616 -618 0
593 594 582 583 -616 -618 0
593 582 583 -616 -618 0
593 594 619 583 -616 -618 0
593 582 619 583 -616 -618 0
593 594 583 -616 -618 0
593 594 619 584 -616 -618 0
593 582 619 584 -616 -618 0
593 594 582 584 -616 -618 0
593 582 584 -616 -618 0
593 594 583 584 -616 -618 0
593 582 583 584 -616 -618 0
98 -618 0
-98 618 0
-594 621 0
-619 -583 621 0
-588 -583 -584 621 0
-622 0
594 619 583 588 -621 0
594 583 588 -621 0
594 619 583 -621 0
594 583 -621 0
594 619 583 584 -621 0
594 583 584 -621 0
594 619 588 584 -621 0
594 583 588 584 -621 0
594 619 584 -621 0
594 619 588 585 -621 0
594 583 588 585 -621 0
594 619 583 585 -621 0
594 583 585 -621 0
594 619 584 585 -621 0
594 583 584 585 -621 0
594 619 588 586 -621 0
594 583 588 586 -621 0
594 619 583 586 -621 0
594 583 586 -621 0
594 619 584 586 -621 0
594 583 584 586 -621 0
102 -621 0
-102 621 0
-619 623 0
-588 -584 623 0
-584 -585 -586 623 0
619 588 584 -623 0
619 584 -623 0
619 588 585 -623 0
619 584 585 -623 0
619 588 586 -623 0
619 584 586 -623 0
106 -623 0
-106 623 0
-588 624 0
-585 -586 624 0
-619 -586 -625 624 0
619 588 585 -624 0
619 588 586 -624 0
588 585 586 -624 0
588 586 -624 0
588 585 625 -624 0
588 586 625 -624 0
110 -624 0
-110 624 0
-585 626 0
-619 -625 626 0
-588 -584 -625 626 0
619 588 585 -626 0
588 585 625 -626 0
619 584 585 -626 0
584 585 625 -626 0
619 585 625 -626 0
585 625 -626 0
114 -626 0
-114 626 0
-627 628 0
-629 -630 628 0
-306 -630 -631 628 0
306 627 629 -628 0
306 627 630 -628 0
627 629 630 -628 0
627 630 -628 0
627 629 631 -628 0
627 630 631 -628 0
118 -628 0
-118 628 0
-629 632 0
-306 -631 632 0
306 629 -632 0
629 631 -632 0
121 -632 0
-121 632 0
633 634 0
635 634 0
636 634 0
637 634 0
638 634 0
639 634 0
-640 0
641 642 0
635 642 0
636 642 0
637 642 0
638 642 0
-643 0
-644 645 0
-646 -635 645 0
-635 -647 -636 645 0
-648 0
642 645 0
634 645 0
649 0
644 635 -634 -642 -645 0
650 0
651 0
652 0
653 0
654 0
655 0
656 0
657 0
658 0
659 0
660 0
661 0
662 0
663 0
664 0
665 0
666 0
667 0
668 0
125 -645 0
-125 645 0
633 669 0
636 669 0
637 669 0
638 669 0
639 669 0
-670 0
-646 671 0
-647 -636 671 0
-636 -672 -637 671 0
-673 0
669 671 0
646 647 636 641 -669 -671 0
646 636 641 -669 -671 0
646 647 672 641 -669 -671 0
646 636 672 641 -669 -671 0
646 647 637 641 -669 -671 0
646 636 637 641 -669 -671 0
646 647 636 -669 -671 0
646 636 -669 -671 0
646 647 636 672 -669 -671 0
646 636 672 -669 -671 0
646 647 636 637 -669 -671 0
646 636 637 -669 -671 0
646 647 672 637 -669 -671 0
646 636 672 637 -669 -671 0
646 647 637 -669 -671 0
646 647 636 638 -669 -671 0
646 636 638 -669 -671 0
646 647 672 638 -669 -671 0
646 636 672 638 -669 -671 0
646 647 637 638 -669 -671 0
646 636 637 638 -669 -671 0
128 -671 0
-128 671 0
-647 674 0
-672 -637 674 0
-641 -637 -638 674 0
-675 0
647 672 641 633 -674 0
647 637 641 633 -674 0
647 672 637 633 -674 0
647 637 633 -674 0
647 672 638 633 -674 0
647 637 638 633 -674 0
647 672 637 641 -674 0
647 637 641 -674 0
647 672 637 -674 0
647 637 -674 0
647 672 637 638 -674 0
647 637 638 -674 0
647 672 641 638 -674 0
647 637 641 638 -674 0
647 672 638 -674 0
647 672 641 639 -674 0
647 637 641 639 -674 0
647 672 637 639 -674 0
647 637 639 -674 0
647 672 638 639 -674 0
647 637 638 639 -674 0
132 -674 0
-132 674 0
-672 676 0
-641 -638 676 0
-633 -638 -639 676 0
672 641 633 -676 0
672 638 633 -676 0
672 641 638 -676 0
672 638 -676 0
672 641 639 -676 0
672 638 639 -676 0
136 -676 0
-136 676 0
-641 677 0
-633 -639 677 0
641 633 -677 0
641 639 -677 0
140 -677 0
-140 677 0
-633 678 0
-641 -679 678 0
641 633 -678 0
633 679 -678 0
144 -678 0
-144 678 0
680 681 0
682 681 0
683 681 0
684 681 0
685 681 0
-686 0
-687 688 0
-689 -682 688 0
-682 -690 -683 688 0
-691 0
681 688 0
687 689 682 -681 -688 0
687 682 -681 -688 0
687 689 682 690 -681 -688 0
687 682 690 -681 -688 0
687 689 682 683 -681 -688 0
687 682 683 -681 -688 0
687 689 690 683 -681 -688 0
687 682 690 683 -681 -688 0
687 689 683 -681 -688 0
687 689 682 692 -681 -688 0
687 682 692 -681 -688 0
687 689 690 692 -681 -688 0
687 682 690 692 -681 -688 0
687 689 683 692 -681 -688 0
687 682 683 692 -681 -688 0
687 689 682 684 -681 -688 0
687 682 684 -681 -688 0
687 689 690 684 -681 -688 0
687 682 690 684 -681 -688 0
687 689 683 684 -681 -688 0
687 682 683 684 -681 -688 0
148 -688 0
-148 688 0
-689 693 0
-690 -683 693 0
-683 -692 -684 693 0
-694 0
689 690 683 680 -693 0
689 683 680 -693 0
689 690 692 680 -693 0
689 683 692 680 -693 0
689 690 684 680 -693 0
689 683 684 680 -693 0
689 690 683 -693 0
689 683 -693 0
689 690 683 692 -693 0
689 683 692 -693 0
689 690 683 684 -693 0
689 683 684 -693 0
689 690 692 684 -693 0
689 683 692 684 -693 0
689 690 684 -693 0
689 690 683 685 -693 0
689 683 685 -693 0
689 690 692 685 -693 0
689 683 692 685 -693 0
689 690 684 685 -693 0
689 683 684 685 -693 0
151 -693 0
-151 693 0
-690 695 0
-692 -684 695 0
-680 -684 -685 695 0
690 692 680 -695 0
690 684 680 -695 0
690 692 684 -695 0
690 684 -695 0
690 692 685 -695 0
690 684 685 -695 0
155 -695 0
-155 695 0
-692 696 0
-680 -685 696 0
692 680 -696 0
692 685 -696 0
159 -696 0
-159 696 0
-680 697 0
-692 -698 697 0
692 680 -697 0
680 698 -697 0
163 -697 0
-163 697 0
699 700 0
701 700 0
702 700 0
703 700 0
704 700 0
705 700 0
706 700 0
-707 0
701 708 0
702 708 0
703 708 0
704 708 0
709 708 0
705 708 0
-710 0
701 711 0
702 711 0
703 711 0
712 711 0
704 711 0
-713 0
-714 715 0
-716 -701 715 0
-717 -701 -702 715 0
-718 0
711 715 0
708 715 0
700 715 0
719 0
720 0
721 0
722 0
723 0
724 0
725 0
726 0
727 0
728 0
729 0
730 0
731 0
732 0
733 0
734 0
735 0
736 0
737 0
738 0
739 0
167 -715 0
-167 715 0
699 740 0
702 740 0
703 740 0
704 740 0
705 740 0
706 740 0
-741 0
702 742 0
703 742 0
704 742 0
709 742 0
705 742 0
-743 0
-716 744 0
-717 -702 744 0
-702 -745 -703 744 0
-746 0
742 744 0
740 744 0
747 0
716 702 -740 -742 -744 0
748 0
749 0
750 0
751 0
752 0
753 0
754 0
755 0
756 0
757 0
758 0
759 0
760 0
761 0
762 0
763 0
764 0
765 0
766 0
170 -744 0
-170 744 0
699 767 0
703 767 0
704 767 0
705 767 0
706 767 0
-768 0
-717 769 0
-745 -703 769 0
-703 -712 -704 769 0
-770 0
767 769 0
717 745 703 -767 -769 0
717 703 -767 -769 0
717 745 703 712 -767 -769 0
717 703 712 -767 -769 0
717 745 703 704 -767 -769 0
717 703 704 -767 -769 0
717 745 712 704 -767 -769 0
717 703 712 704 -767 -769 0
717 745 704 -767 -769 0
717 745 703 709 -767 -769 0
717 703 709 -767 -769 0
717 745 712 709 -767 -769 0
717 703 712 709 -767 -769 0
717 745 704 709 -767 -769 0
717 703 704 709 -767 -769 0
717 745 703 705 -767 -769 0
717 703 705 -767 -769 0
717 745 712 705 -767 -769 0
717 703 712 705 -767 -769 0
717 745 704 705 -767 -769 0
717 703 704 705 -767 -769 0
174 -769 0
-174 769 0
-745 771 0
-712 -704 771 0
-704 -709 -705 771 0
-772 0
745 712 704 699 -771 0
745 704 699 -771 0
745 712 709 699 -771 0
745 704 709 699 -771 0
745 712 705 699 -771 0
745 704 705 699 -771 0
745 712 704 -771 0
745 704 -771 0
745 712 704 709 -771 0
745 704 709 -771 0
745 712 704 705 -771 0
745 704 705 -771 0
745 712 709 705 -771 0
745 704 709 705 -771 0
745 712 705 -771 0
745 712 704 706 -771 0
745 704 706 -771 0
745 712 709 706 -771 0
745 704 709 706 -771 0
745 712 705 706 -771 0
745 704 705 706 -771 0
178 -771 0
-178 771 0
-712 773 0
-709 -705 773 0
-699 -705 -706 773 0
712 709 699 -773 0
712 705 699 -773 0
712 709 705 -773 0
712 705 -773 0
712 709 706 -773 0
712 705 706 -773 0
182 -773 0
-182 773 0
-709 774 0
-699 -706 774 0
-712 -706 -775 774 0
712 709 699 -774 0
712 709 706 -774 0
709 699 706 -774 0
709 706 -774 0
709 699 775 -774 0
709 706 775 -774 0
186 -774 0
-186 774 0
-699 776 0
-712 -775 776 0
-709 -705 -775 776 0
712 709 699 -776 0
709 699 775 -776 0
712 705 699 -776 0
705 699 775 -776 0
712 699 775 -776 0
699 775 -776 0
190 -776 0
-190 776 0
777 778 0
779 778 0
780 778 0
781 778 0
782 778 0
783 778 0
784 778 0
-785 0
779 786 0
780 786 0
781 786 0
782 786 0
787 786 0
783 786 0
-788 0
789 790 0
779 790 0
780 790 0
781 790 0
782 790 0
-791 0
-792 793 0
-794 -779 793 0
-779 -795 -780 793 0
-796 0
790 793 0
786 793 0
778 793 0
797 0
798 0
799 0
800 0
801 0
802 0
803 0
804 0
805 0
806 0
807 0
808 0
809 0
810 0
811 0
812 0
813 0
814 0
815 0
816 0
817 0
194 -793 0
-194 793 0
777 818 0
780 818 0
781 818 0
782 818 0
783 818 0
784 818 0
-819 0
780 820 0
781 820 0
782 820 0
787 820 0
783 820 0
-821 0
-794 822 0
-795 -780 822 0
-823 -780 -781 822 0
-824 0
820 822 0
818 822 0
825 0
826 0
827 0
828 0
829 0
830 0
831 0
832 0
833 0
794 780 -818 -820 -822 0
834 0
835 0
836 0
837 0
838 0
839 0
840 0
841 0
842 0
843 0
844 0
197 -822 0
-197 822 0
777 845 0
781 845 0
782 845 0
783 845 0
784 845 0
-846 0
-795 847 0
-823 -781 847 0
-789 -781 -782 847 0
-848 0
845 847 0
795 823 781 789 -845 -847 0
795 781 789 -845 -847 0
795 823 781 -845 -847 0
795 781 -845 -847 0
795 823 781 782 -845 -847 0
795 781 782 -845 -847 0
795 823 789 782 -845 -847 0
795 781 789 782 -845 -847 0
795 823 782 -845 -847 0
795 823 789 787 -845 -847 0
795 781 789 787 -845 -847 0
795 823 781 787 -845 -847 0
795 781 787 -845 -847 0
795 823 782 787 -845 -847 0
795 781 782 787 -845 -847 0
795 823 789 783 -845 -847 0
795 781 789 783 -845 -847 0
795 823 781 783 -845 -847 0
795 781 783 -845 -847 0
795 823 782 783 -845 -847 0
795 781 782 783 -845 -847 0
201 -847 0
-201 847 0
-823 849 0
-789 -782 849 0
-782 -787 -783 849 0
-850 0
823 789 782 777 -849 0
823 782 777 -849 0
823 789 787 777 -849 0
823 782 787 777 -849 0
823 789 783 777 -849 0
823 782 783 777 -849 0
823 789 782 -849 0
823 782 -849 0
823 789 782 787 -849 0
823 782 787 -849 0
823 789 782 783 -849 0
823 782 783 -849 0
823 789 787 783 -849 0
823 782 787 783 -849 0
823 789 783 -849 0
823 789 782 784 -849 0
823 782 784 -849 0
823 789 787 784 -849 0
823 782 787 784 -849 0
823 789 783 784 -849 0
823 782 783 784 -849 0
205 -849 0
-205 849 0
-789 851 0
-787 -783 851 0
-777 -783 -784 851 0
-852 0
823 789 787 777 -851 0
823 789 783 777 -851 0
823 789 787 783 -851 0
823 789 783 -851 0
823 789 787 784 -851 0
823 789 783 784 -851 0
789 787 783 777 -851 0
789 783 777 -851 0
789 787 783 -851 0
789 783 -851 0
789 787 783 784 -851 0
789 783 784 -851 0
789 787 777 784 -851 0
789 783 777 784 -851 0
789 787 784 -851 0
789 787 777 853 -851 0
789 783 777 853 -851 0
789 787 783 853 -851 0
789 783 853 -851 0
789 787 784 853 -851 0
789 783 784 853 -851 0
209 -851 0
-209 851 0
-787 854 0
-777 -784 854 0
-823 -784 -853 854 0
-855 0
823 789 787 777 -854 0
823 789 787 784 -854 0
789 787 777 784 -854 0
789 787 784 -854 0
789 787 777 853 -854 0
789 787 784 853 -854 0
823 782 787 777 -854 0
823 782 787 784 -854 0
782 787 777 784 -854 0
782 787 784 -854 0
782 787 777 853 -854 0
782 787 784 853 -854 0
823 787 777 784 -854 0
823 787 784 -854 0
787 777 784 -854 0
787 784 -854 0
787 777 784 853 -854 0
787 784 853 -854 0
823 787 777 853 -854 0
823 787 784 853 -854 0
787 777 853 -854 0
213 -854 0
-213 854 0
-777 856 0
-823 -853 856 0
-789 -782 -853 856 0
-857 0
823 789 782 777 -856 0
789 782 777 853 -856 0
823 782 777 -856 0
782 777 853 -856 0
823 782 777 853 -856 0
823 789 787 777 -856 0
789 787 777 853 -856 0
823 782 787 777 -856 0
782 787 777 853 -856 0
823 787 777 853 -856 0
787 777 853 -856 0
823 789 783 777 -856 0
789 783 777 853 -856 0
823 782 783 777 -856 0
782 783 777 853 -856 0
823 783 777 853 -856 0
783 777 853 -856 0
823 789 777 853 -856 0
789 777 853 -856 0
823 777 853 -856 0
777 853 -856 0
217 -856 0
-217 856 0
858 859 0
860 859 0
861 859 0
862 859 0
863 859 0
-864 0
-865 866 0
-867 -860 866 0
-860 -868 -861 866 0
-869 0
859 866 0
865 867 860 870 -859 -866 0
865 860 870 -859 -866 0
865 867 868 870 -859 -866 0
865 860 868 870 -859 -866 0
865 867 861 870 -859 -866 0
865 860 861 870 -859 -866 0
865 867 860 -859 -866 0
865 860 -859 -866 0
865 867 860 868 -859 -866 0
865 860 868 -859 -866 0
865 867 860 861 -859 -866 0
865 860 861 -859 -866 0
865 867 868 861 -859 -866 0
865 860 868 861 -859 -866 0
865 867 861 -859 -866 0
865 867 860 862 -859 -866 0
865 860 862 -859 -866 0
865 867 868 862 -859 -866 0
865 860 868 862 -859 -866 0
865 867 861 862 -859 -866 0
865 860 861 862 -859 -866 0
221 -866 0
-221 866 0
-867 871 0
-868 -861 871 0
-870 -861 -862 871 0
-872 0
867 868 870 858 -871 0
867 861 870 858 -871 0
867 868 861 858 -871 0
867 861 858 -871 0
867 868 862 858 -871 0
867 861 862 858 -871 0
867 868 861 870 -871 0
867 861 870 -871 0
867 868 861 -871 0
867 861 -871 0
867 868 861 862 -871 0
867 861 862 -871 0
867 868 870 862 -871 0
867 861 870 862 -871 0
867 868 862 -871 0
867 868 870 863 -871 0
867 861 870 863 -871 0
867 868 861 863 -871 0
867 861 863 -871 0
867 868 862 863 -871 0
867 861 862 863 -871 0
224 -871 0
-224 871 0
-868 873 0
-870 -862 873 0
-858 -862 -863 873 0
868 870 858 -873 0
868 862 858 -873 0
868 870 862 -873 0
868 862 -873 0
868 870 863 -873 0
868 862 863 -873 0
228 -873 0
-228 873 0
-870 874 0
-858 -863 874 0
-868 -863 -875 874 0
868 870 858 -874 0
868 870 863 -874 0
870 858 863 -874 0
870 863 -874 0
870 858 875 -874 0
870 863 875 -874 0
232 -874 0
-232 874 0
-858 876 0
-868 -875 876 0
-870 -862 -875 876 0
868 870 858 -876 0
870 858 875 -876 0
868 862 858 -876 0
862 858 875 -876 0
868 858 875 -876 0
858 875 -876 0
236 -876 0
-236 876 0
699 877 0
705 877 0
706 877 0
878 877 0
879 877 0
-880 0
-881 882 0
-883 -878 882 0
-712 -878 -879 882 0
-884 0
877 882 0
712 709 881 883 -877 -882 0
712 709 881 878 -877 -882 0
709 881 883 878 -877 -882 0
709 881 878 -877 -882 0
709 881 883 879 -877 -882 0
709 881 878 879 -877 -882 0
712 705 881 883 -877 -882 0
712 705 881 878 -877 -882 0
705 881 883 878 -877 -882 0
705 881 878 -877 -882 0
705 881 883 879 -877 -882 0
705 881 878 879 -877 -882 0
712 881 883 878 -877 -882 0
712 881 878 -877 -882 0
881 883 878 -877 -882 0
881 878 -877 -882 0
881 883 878 879 -877 -882 0
881 878 879 -877 -882 0
712 881 883 879 -877 -882 0
712 881 878 879 -877 -882 0
881 883 879 -877 -882 0
240 -882 0
-240 882 0
-883 885 0
-712 -879 885 0
-709 -705 -879 885 0
-886 0
712 709 699 883 -885 0
709 699 883 879 -885 0
712 705 699 883 -885 0
705 699 883 879 -885 0
712 699 883 879 -885 0
699 883 879 -885 0
712 709 705 883 -885 0
709 705 883 879 -885 0
712 705 883 -885 0
705 883 879 -885 0
712 705 883 879 -885 0
712 709 706 883 -885 0
709 706 883 879 -885 0
712 705 706 883 -885 0
705 706 883 879 -885 0
712 706 883 879 -885 0
706 883 879 -885 0
712 709 883 879 -885 0
709 883 879 -885 0
712 883 879 -885 0
883 879 -885 0
243 -885 0
-243 885 0
-887 888 0
-889 -890 888 0
-890 -891 -892 888 0
887 889 890 -888 0
887 890 -888 0
887 889 891 -888 0
887 890 891 -888 0
887 889 892 -888 0
887 890 892 -888 0
247 -888 0
-247 888 0
-889 893 0
-891 -892 893 0
889 891 -893 0
889 892 -893 0
250 -893 0
-250 893 0
254 -891 0
891 -254 0
894 895 0
896 895 0
897 895 0
898 895 0
899 895 0
-900 0
-901 902 0
-903 -896 902 0
-896 -904 -897 902 0
-905 0
895 902 0
901 903 896 -895 -902 0
901 896 -895 -902 0
901 903 896 904 -895 -902 0
901 896 904 -895 -902 0
901 903 896 897 -895 -902 0
901 896 897 -895 -902 0
901 903 904 897 -895 -902 0
901 896 904 897 -895 -902 0
901 903 897 -895 -902 0
901 903 896 906 -895 -902 0
901 896 906 -895 -902 0
901 903 904 906 -895 -902 0
901 896 904 906 -895 -902 0
901 903 897 906 -895 -902 0
901 896 897 906 -895 -902 0
901 903 896 898 -895 -902 0
901 896 898 -895 -902 0
901 903 904 898 -895 -902 0
901 896 904 898 -895 -902 0
901 903 897 898 -895 -902 0
901 896 897 898 -895 -902 0
258 -902 0
-258 902 0
-903 907 0
-904 -897 907 0
-897 -906 -898 907 0
-908 0
903 904 897 894 -907 0
903 897 894 -907 0
903 904 906 894 -907 0
903 897 906 894 -907 0
903 904 898 894 -907 0
903 897 898 894 -907 0
903 904 897 -907 0
903 897 -907 0
903 904 897 906 -907 0
903 897 906 -907 0
903 904 897 898 -907 0
903 897 898 -907 0
903 904 906 898 -907 0
903 897 906 898 -907 0
903 904 898 -907 0
903 904 897 899 -907 0
903 897 899 -907 0
903 904 906 899 -907 0
903 897 906 899 -907 0
903 904 898 899 -907 0
903 897 898 899 -907 0
261 -907 0
-261 907 0
-904 909 0
-906 -898 909 0
-894 -898 -899 909 0
904 906 894 -909 0
904 898 894 -909 0
904 906 898 -909 0
904 898 -909 0
904 906 899 -909 0
904 898 899 -909 0
265 -909 0
-265 909 0
-906 910 0
-894 -899 910 0
-904 -899 -911 910 0
904 906 894 -910 0
904 906 899 -910 0
906 894 899 -910 0
906 899 -910 0
906 894 911 -910 0
906 899 911 -910 0
269 -910 0
-269 910 0
-894 912 0
-904 -911 912 0
-906 -898 -911 912 0
904 906 894 -912 0
906 894 911 -912 0
904 898 894 -912 0
898 894 911 -912 0
904 894 911 -912 0
894 911 -912 0
273 -912 0
-273 912 0
913 -279 -914 0
279 -913 -914 0
-913 -279 914 0
279 913 914 0
-914 0
915 -280 -916 0
280 -915 -916 0
-915 -280 916 0
280 915 916 0
-916 0
917 -281 -918 0
281 -917 -918 0
-917 -281 918 0
281 917 918 0
-918 0
919 -282 -920 0
282 -919 -920 0
-919 -282 920 0
282 919 920 0
-920 0
921 -291 -922 0
291 -921 -922 0
-921 -291 922 0
291 921 922 0
-922 0
923 -297 -924 0
297 -923 -924 0
-923 -297 924 0
297 923 924 0
-924 0
925 -299 -926 0
299 -925 -926 0
-925 -299 926 0
299 925 926 0
-926 0
927 -301 -928 0
301 -927 -928 0
-927 -301 928 0
301 927 928 0
-928 0
929 -930 -931 0
930 -929 -931 0
-929 -930 931 0
930 929 931 0
-931 0
932 -307 -933 0
307 -932 -933 0
-932 -307 933 0
307 932 933 0
-933 0
934 -935 -936 0
935 -934 -936 0
-934 -935 936 0
935 934 936 0
-936 0
937 -309 -938 0
309 -937 -938 0
-937 -309 938 0
309 937 938 0
-938 0
939 -310 -940 0
310 -939 -940 0
-939 -310 940 0
310 939 940 0
-940 0
941 -311 -942 0
311 -941 -942 0
-941 -311 942 0
311 941 942 0
-942 0
943 -312 -944 0
312 -943 -944 0
-943 -312 944 0
312 943 944 0
-944 0
945 -313 -946 0
313 -945 -946 0
-945 -313 946 0
313 945 946 0
-946 0
947 -314 -948 0
314 -947 -948 0
-947 -314 948 0
314 947 948 0
-948 0
949 -315 -950 0
315 -949 -950 0
-949 -315 950 0
315 949 950 0
-950 0
951 -515 -952 0
515 -951 -952 0
-951 -515 952 0
515 951 952 0
-952 0
953 -516 -954 0
516 -953 -954 0
-953 -516 954 0
516 953 954 0
-954 0
955 -579 -956 0
579 -955 -956 0
-955 -579 956 0
579 955 956 0
-956 0
957 -580 -958 0
580 -957 -958 0
-957 -580 958 0
580 957 958 0
-958 0
959 -582 -960 0
582 -959 -960 0
-959 -582 960 0
582 959 960 0
-960 0
961 -583 -962 0
583 -961 -962 0
-961 -583 962 0
583 961 962 0
-962 0
963 -584 -964 0
584 -963 -964 0
-963 -584 964 0
584 963 964 0
-964 0
965 -586 -966 0
586 -965 -966 0
-965 -586 966 0
586 965 966 0
-966 0
967 -625 -968 0
625 -967 -968 0
-967 -625 968 0
625 967 968 0
-968 0
969 -630 -970 0
630 -969 -970 0
-969 -630 970 0
630 969 970 0
-970 0
971 -631 -972 0
631 -971 -972 0
-971 -631 972 0
631 971 972 0
-972 0
973 -635 -974 0
635 -973 -974 0
-973 -635 974 0
635 973 974 0
-974 0
975 -636 -976 0
636 -975 -976 0
-975 -636 976 0
636 975 976 0
-976 0
977 -637 -978 0
637 -977 -978 0
-977 -637 978 0
637 977 978 0
-978 0
979 -638 -980 0
638 -979 -980 0
-979 -638 980 0
638 979 980 0
-980 0
981 -639 -982 0
639 -981 -982 0
-981 -639 982 0
639 981 982 0
-982 0
983 -679 -984 0
679 -983 -984 0
-983 -679 984 0
679 983 984 0
-984 0
985 -682 -986 0
682 -985 -986 0
-985 -682 986 0
682 985 986 0
-986 0
987 -683 -988 0
683 -987 -988 0
-987 -683 988 0
683 987 988 0
-988 0
989 -684 -990 0
684 -989 -990 0
-989 -684 990 0
684 989 990 0
-990 0
991 -685 -992 0
685 -991 -992 0
-991 -685 992 0
685 991 992 0
-992 0
993 -698 -994 0
698 -993 -994 0
-993 -698 994 0
698 993 994 0
-994 0
995 -701 -996 0
701 -995 -996 0
-995 -701 996 0
701 995 996 0
-996 0
997 -702 -998 0
702 -997 -998 0
-997 -702 998 0
702 997 998 0
-998 0
999 -703 -1000 0
703 -999 -1000 0
-999 -703 1000 0
703 999 1000 0
-1000 0
1001 -704 -1002 0
704 -1001 -1002 0
-1001 -704 1002 0
704 1001 1002 0
-1002 0
1003 -705 -1004 0
705 -1003 -1004 0
-1003 -705 1004 0
705 1003 1004 0
-1004 0
1005 -706 -1006 0
706 -1005 -1006 0
-1005 -706 1006 0
706 1005 1006 0
-1006 0
1007 -775 -1008 0
775 -1007 -1008 0
-1007 -775 1008 0
775 1007 1008 0
-1008 0
1009 -779 -1010 0
779 -1009 -1010 0
-1009 -779 1010 0
779 1009 1010 0
-1010 0
1011 -780 -1012 0
780 -1011 -1012 0
-1011 -780 1012 0
780 1011 1012 0
-1012 0
1013 -781 -1014 0
781 -1013 -1014 0
-1013 -781 1014 0
781 1013 1014 0
-1014 0
1015 -782 -1016 0
782 -1015 -1016 0
-1015 -782 1016 0
782 1015 1016 0
-1016 0
1017 -783 -1018 0
783 -1017 -1018 0
-1017 -783 1018 0
783 1017 1018 0
-1018 0
1019 -784 -1020 0
784 -1019 -1020 0
-1019 -784 1020 0
784 1019 1020 0
-1020 0
1021 -853 -1022 0
853 -1021 -1022 0
-1021 -853 1022 0
853 1021 1022 0
-1022 0
1023 -860 -1024 0
860 -1023 -1024 0
-1023 -860 1024 0
860 1023 1024 0
-1024 0
1025 -861 -1026 0
861 -1025 -1026 0
-1025 -861 1026 0
861 1025 1026 0
-1026 0
1027 -862 -1028 0
862 -1027 -1028 0
-1027 -862 1028 0
862 1027 1028 0
-1028 0
1029 -863 -1030 0
863 -1029 -1030 0
-1029 -863 1030 0
863 1029 1030 0
-1030 0
1031 -875 -1032 0
875 -1031 -1032 0
-1031 -875 1032 0
875 1031 1032 0
-1032 0
1033 -878 -1034 0
878 -1033 -1034 0
-1033 -878 1034 0
878 1033 1034 0
-1034 0
1035 -879 -1036 0
879 -1035 -1036 0
-1035 -879 1036 0
879 1035 1036 0
-1036 0
1037 -890 -1038 0
890 -1037 -1038 0
-1037 -890 1038 0
890 1037 1038 0
-1038 0
1039 -892 -1040 0
892 -1039 -1040 0
-1039 -892 1040 0
892 1039 1040 0
-1040 0
1041 -1042 -1043 0
1042 -1041 -1043 0
-1041 -1042 1043 0
1042 1041 1043 0
-1043 0
1044 -896 -1045 0
896 -1044 -1045 0
-1044 -896 1045 0
896 1044 1045 0
-1045 0
1046 -897 -1047 0
897 -1046 -1047 0
-1046 -897 1047 0
897 1046 1047 0
-1047 0
1048 -898 -1049 0
898 -1048 -1049 0
-1048 -898 1049 0
898 1048 1049 0
-1049 0
1050 -899 -1051 0
899 -1050 -1051 0
-1050 -899 1051 0
899 1050 1051 0
-1051 0
1052 -911 -1053 0
911 -1052 -1053 0
-1052 -911 1053 0
911 1052 1053 0
-1053 0
913 0
-915 0
917 0
-919 0
-921 0
923 0
925 0
927 0
-929 0
-932 0
934 0
937 0
939 0
-941 0
-943 0
945 0
-947 0
949 0
951 0
-953 0
-955 0
957 0
-959 0
-961 0
-963 0
965 0
-967 0
969 0
971 0
-973 0
975 0
977 0
-979 0
981 0
-983 0
-985 0
987 0
989 0
-991 0
993 0
-995 0
997 0
999 0
-1001 0
-1003 0
-1005 0
-1007 0
-1009 0
1011 0
-1013 0
-1015 0
-1017 0
-1019 0
-1021 0
1023 0
1025 0
1027 0
1029 0
-1031 0
1033 0
1035 0
1037 0
-1039 0
1041 0
1044 0
-1046 0
1048 0
-1050 0
-1052 0
-284 0
-286 0
-287 0
-288 0
-277 0
-294 0
-296 0
-298 0
-300 0
-304 0
-306 0
-332 0
-334 0
-335 0
-371 0
-329 0
-326 0
-323 0
-524 0
-526 0
-577 0
-591 0
593 0
-594 0
-619 0
-588 0
585 0
-627 0
629 0
-644 0
-646 0
647 0
672 0
-641 0
-633 0
-687 0
-689 0
690 0
692 0
-680 0
-714 0
-716 0
-717 0
745 0
712 0
709 0
-699 0
-792 0
-794 0
795 0
-823 0
-789 0
787 0
-777 0
-865 0
867 0
868 0
-870 0
-858 0
-881 0
883 0
-887 0
889 0
891 0
-901 0
903 0
904 0
906 0
-894 0
-1054 -1055 0
-1054 20 0
-1054 -23 0
-1054 27 0
-1054 -31 0
-1054 -35 0
-1054 39 0
-1054 42 0
-1054 46 0
-1054 -50 0
-1054 -54 0
57 -1054 0
61 -1054 0
-1054 64 0
-1054 -68 0
-1054 -72 0
-1054 76 0
-1054 -79 0
-1054 83 0
-1054 87 0
-1054 -90 0
-1054 -94 0
-1054 97 0
-1054 -100 0
-1054 -104 0
-1054 -108 0
-1054 112 0
-1054 -116 0
-1054 120 0
-1054 123 0
-1054 -127 0
-1054 130 0
-1054 134 0
-1054 -138 0
-1054 142 0
-1054 -146 0
-1054 -150 0
-1054 153 0
-1054 157 0
-1054 -161 0
-1054 165 0
-1054 -169 0
-1054 172 0
-1054 176 0
-1054 -180 0
-1054 -184 0
-1054 -188 0
-1054 -192 0
-1054 -196 0
-1054 199 0
-1054 -203 0
-1054 -207 0
-1054 -211 0
-1054 -215 0
-1054 -219 0
-1054 223 0
-1054 226 0
-1054 230 0
-1054 234 0
-1054 -238 0
-1054 242 0
-1054 245 0
-1054 249 0
-1054 -252 0
-1054 256 0
-1054 260 0
-1054 -263 0
-1054 267 0
-1054 -271 0
-1054 -275 0
-1055 -20 0
-1055 -23 0
-1055 -27 0
-1055 -31 0
-1055 -35 0
-1055 -39 0
-1055 -42 0
-1055 -46 0
-1055 -50 0
-1055 -54 0
-1055 -57 0
-1055 -61 0
-1055 -64 0
-1055 -68 0
-1055 -72 0
-1055 -76 0
-1055 -79 0
-1055 -83 0
-1055 -87 0
-1055 -90 0
-1055 -94 0
-1055 -97 0
-1055 100 0
-1055 -104 0
-1055 -108 0
-1055 -112 0
-1055 116 0
-1055 -120 0
-1055 123 0
-1055 -127 0
-1055 -130 0
-1055 134 0
-1055 138 0
-1055 -142 0
-1055 -146 0
-1055 -150 0
-1055 -153 0
-1055 157 0
-1055 161 0
-1055 -165 0
-1055 -169 0
-1055 -172 0
-1055 -176 0
-1055 180 0
-1055 184 0
-1055 188 0
-1055 -192 0
-1055 -196 0
-1055 -199 0
-1055 203 0
-1055 -207 0
-1055 -211 0
-1055 215 0
-1055 -219 0
-1055 -223 0
-1055 226 0
-1055 230 0
-1055 -234 0
-1055 -238 0
-1055 -242 0
-1055 245 0
-1055 -249 0
-1055 252 0
-1055 256 0
-1055 -260 0
-1055 263 0
-1055 267 0
-1055 271 0
-1055 -275 0
1054 1055 0
-1056 0
-1057 0
-1058 0
-1059 0
-1060 0
-1061 0
-1062 0
-1063 0
